
Gurobi 11.0.3 (linux64) logging started Sat Nov 23 05:42:46 2024

Set parameter LogFile to value "/home/yihong/Coding/OR_SUC/SUC_results_bigM100000_thread4/case24_ieee_rts_theta0.5_epsilon0.05_gurobi_seed270000_num_gen100_N_WDR50_load_scaling_factor1_proposed_T24quadra_cost.txt"
Set parameter TimeLimit to value 3600
Gurobi Optimizer version 11.0.3 build v11.0.3rc0 (linux64 - "Ubuntu 20.04.6 LTS")

CPU model: AMD EPYC 7532 32-Core Processor, instruction set [SSE2|AVX|AVX2]
Thread count: 64 physical cores, 128 logical processors, using up to 4 threads

Optimize a model with 51892 rows, 29811 columns and 708694 nonzeros
Model fingerprint: 0x21519b87
Model has 2400 quadratic constraints
Variable types: 27411 continuous, 2400 integer (2400 binary)
Coefficient statistics:
  Matrix range     [3e-04, 2e+03]
  QMatrix range    [2e-03, 8e-03]
  QLMatrix range   [2e-01, 6e+01]
  Objective range  [1e+00, 1e+00]
  Bounds range     [1e+00, 1e+00]
  RHS range        [1e+00, 9e+03]
Presolve removed 42038 rows and 12893 columns
Presolve time: 0.25s
Presolved: 9854 rows, 16918 columns, 62377 nonzeros
Presolved model has 2400 quadratic constraint(s)
Variable types: 14518 continuous, 2400 integer (2400 binary)

Root relaxation: objective 4.731087e+04, 7865 iterations, 0.19 seconds (0.28 work units)

    Nodes    |    Current Node    |     Objective Bounds      |     Work
 Expl Unexpl |  Obj  Depth IntInf | Incumbent    BestBd   Gap | It/Node Time

H    0     0                    697837.86154 47310.8701  93.2%     -    0s
*    0     0               0    697837.86154 47310.8701  93.2%     -    0s
     0     0 359038.092    0  718 697837.862 359038.092  48.5%     -    1s
     0     0 652639.075    0  333 697837.862 652639.075  6.48%     -    1s
     0     0 652709.514    0   35 697837.862 652709.514  6.47%     -    1s
     0     0 652849.458    0   49 697837.862 652849.458  6.45%     -    1s
     0     0 652849.493    0   49 697837.862 652849.493  6.45%     -    1s
     0     0 652850.500    0   53 697837.862 652850.500  6.45%     -    1s
     0     0 652850.501    0   53 697837.862 652850.501  6.45%     -    2s
     0     2 652850.725    0   53 697837.862 652850.725  6.45%     -    3s
   180   232 653300.889   45   18 697837.862 652880.315  6.44%  30.4    5s
H  231   232                    653278.59246 652880.315  0.06%  34.3    5s
*  231   232              53    653278.59246 652880.315  0.06%  34.3    5s

Cutting planes:
  Gomory: 14
  Lift-and-project: 10
  Implied bound: 274
  MIR: 20
  Flow cover: 130
  RLT: 342
  Relax-and-lift: 114

Explored 239 nodes (28835 simplex iterations) in 6.26 seconds (8.71 work units)
Thread count was 4 (of 128 available processors)

Solution count 3: 653279 653279 697838 

Optimal solution found (tolerance 1.00e-03)
Warning: max constraint violation (2.4749e-07) exceeds tolerance
Best objective 6.532785924567e+05, best bound 6.528803147751e+05, gap 0.0610%
